Generations:
0: ((16, 12, 17, 33, 34, 27, 28, 21, 6, 7, 29, 40, 13, 45, 11, 36, 0, 22, 8, 35, 2, 5, 23, 32, 18, 49, 44, 47, 39, 42, 14, 15, 25, 31, 48, 9, 10, 46, 30, 24, 3, 20, 19, 1, 26, 41, 37, 38, 4, 43), 1228)
1: ((15, 11, 36, 3, 28, 39, 10, 38, 13, 22, 40, 26, 30, 17, 34, 43, 6, 31, 49, 37, 4, 45, 20, 16, 46, 18, 23, 29, 42, 25, 5, 2, 35, 41, 33, 12, 14, 48, 9, 19, 24, 1, 44, 27, 7, 47, 0, 21, 32, 8), 1221)
2: ((17, 29, 4, 20, 25, 24, 8, 35, 47, 39, 13, 30, 48, 27, 15, 41, 1, 46, 19, 44, 3, 14, 6, 33, 26, 22, 38, 2, 11, 40, 23, 45, 36, 9, 42, 34, 43, 10, 49, 0, 18, 28, 7, 37, 21, 5, 16, 12, 31, 32), 1217)
3: ((47, 7, 15, 39, 31, 43, 17, 33, 30, 23, 36, 4, 13, 16, 2, 32, 18, 19, 44, 26, 21, 28, 10, 46, 3, 9, 45, 25, 11, 34, 40, 24, 5, 42, 35, 20, 37, 41, 12, 29, 48, 6, 27, 22, 49, 8, 14, 38, 0, 1), 1210)
4: ((47, 7, 42, 30, 6, 15, 20, 5, 28, 0, 29, 4, 13, 40, 12, 35, 49, 2, 17, 38, 3, 34, 14, 43, 18, 46, 41, 32, 11, 10, 31, 8, 48, 37, 33, 24, 19, 39, 27, 44, 45, 16, 9, 26, 21, 36, 25, 23, 22, 1), 1189)
5: ((42, 30, 6, 15, 20, 5, 28, 0, 29, 4, 13, 40, 12, 35, 49, 2, 17, 38, 3, 34, 14, 39, 31, 43, 18, 46, 41, 32, 11, 10, 8, 48, 37, 33, 24, 19, 27, 44, 45, 16, 9, 26, 21, 36, 25, 23, 22, 1, 47, 7), 1173)
6: ((42, 30, 6, 15, 20, 5, 28, 0, 29, 4, 13, 40, 12, 35, 49, 2, 17, 38, 3, 34, 14, 39, 31, 43, 18, 46, 41, 32, 11, 10, 8, 48, 37, 33, 24, 19, 27, 44, 45, 16, 9, 26, 21, 36, 25, 23, 22, 1, 47, 7), 1173)
7: ((42, 30, 6, 15, 20, 5, 28, 0, 29, 4, 13, 40, 12, 35, 49, 2, 17, 38, 3, 34, 14, 39, 31, 43, 18, 46, 41, 32, 11, 10, 8, 48, 37, 33, 24, 19, 27, 44, 45, 16, 9, 26, 21, 36, 25, 23, 22, 1, 47, 7), 1173)
8: ((42, 30, 6, 15, 20, 5, 28, 0, 29, 4, 13, 40, 12, 35, 49, 2, 17, 38, 3, 34, 14, 39, 31, 43, 18, 46, 41, 32, 11, 10, 8, 48, 37, 33, 24, 19, 27, 44, 45, 16, 9, 26, 21, 36, 25, 23, 22, 1, 47, 7), 1173)
9: ((42, 30, 6, 15, 20, 5, 28, 0, 29, 4, 13, 40, 12, 35, 49, 2, 17, 38, 3, 34, 14, 39, 31, 43, 18, 46, 41, 32, 11, 10, 8, 48, 37, 33, 24, 19, 27, 44, 45, 16, 9, 26, 21, 36, 25, 23, 22, 1, 47, 7), 1173)
10: ((42, 30, 6, 15, 20, 5, 28, 0, 29, 4, 13, 40, 12, 35, 49, 2, 17, 38, 3, 34, 14, 39, 31, 43, 18, 46, 41, 32, 11, 10, 8, 48, 37, 33, 24, 19, 27, 44, 45, 16, 9, 26, 21, 36, 25, 23, 22, 1, 47, 7), 1173)
11: ((42, 30, 6, 15, 20, 5, 28, 0, 29, 4, 13, 40, 12, 35, 49, 2, 17, 38, 3, 34, 14, 39, 31, 43, 18, 46, 41, 32, 11, 10, 8, 48, 37, 33, 24, 19, 27, 44, 45, 16, 9, 26, 21, 36, 25, 23, 22, 1, 47, 7), 1173)
12: ((42, 30, 6, 15, 20, 5, 28, 0, 29, 4, 13, 40, 12, 35, 49, 2, 17, 38, 3, 34, 14, 43, 7, 18, 46, 41, 32, 11, 10, 31, 8, 48, 37, 33, 24, 19, 39, 27, 44, 45, 16, 9, 26, 21, 36, 25, 23, 22, 1, 47), 1166)
13: ((42, 30, 6, 15, 20, 5, 28, 0, 29, 4, 13, 40, 12, 35, 49, 2, 17, 38, 3, 34, 14, 43, 7, 18, 46, 41, 32, 11, 10, 31, 8, 48, 37, 33, 24, 19, 39, 27, 44, 45, 16, 9, 26, 21, 36, 25, 23, 22, 1, 47), 1166)
14: ((42, 30, 6, 15, 20, 5, 28, 0, 29, 4, 13, 40, 12, 35, 49, 2, 17, 38, 3, 34, 14, 43, 7, 18, 46, 41, 32, 11, 10, 31, 8, 48, 37, 33, 24, 19, 39, 27, 44, 45, 16, 9, 26, 21, 36, 25, 23, 22, 1, 47), 1166)
15: ((42, 30, 6, 15, 20, 5, 28, 0, 29, 4, 13, 40, 12, 35, 49, 2, 17, 38, 3, 34, 14, 43, 7, 18, 46, 41, 32, 11, 10, 31, 8, 48, 37, 33, 24, 19, 39, 27, 44, 45, 16, 9, 26, 21, 36, 25, 23, 22, 1, 47), 1166)
16: ((42, 30, 6, 15, 20, 5, 28, 0, 29, 4, 13, 40, 12, 35, 49, 2, 17, 38, 3, 34, 14, 43, 7, 18, 46, 41, 32, 11, 10, 31, 8, 48, 37, 33, 24, 19, 39, 27, 44, 45, 16, 9, 26, 21, 36, 25, 23, 22, 1, 47), 1166)
17: ((42, 30, 6, 15, 20, 5, 28, 0, 29, 4, 13, 40, 12, 35, 49, 2, 17, 38, 3, 34, 14, 43, 7, 18, 46, 41, 32, 11, 10, 31, 8, 48, 37, 33, 24, 19, 39, 27, 44, 45, 16, 9, 26, 21, 36, 25, 23, 22, 1, 47), 1166)
18: ((33, 42, 27, 6, 20, 15, 5, 28, 0, 29, 4, 13, 40, 12, 35, 2, 17, 38, 36, 49, 3, 34, 25, 14, 43, 18, 46, 41, 32, 11, 10, 31, 8, 48, 37, 7, 24, 19, 39, 30, 44, 45, 16, 9, 26, 21, 23, 22, 1, 47), 1160)
19: ((33, 42, 27, 6, 20, 15, 5, 28, 0, 29, 4, 13, 40, 12, 35, 2, 17, 38, 36, 49, 3, 34, 25, 14, 43, 18, 46, 41, 32, 11, 10, 31, 8, 48, 37, 7, 24, 19, 39, 30, 44, 45, 16, 9, 26, 21, 23, 22, 1, 47), 1160)
20: ((33, 42, 27, 6, 20, 15, 5, 28, 0, 29, 4, 13, 40, 12, 35, 2, 17, 38, 36, 49, 3, 34, 25, 14, 43, 18, 46, 41, 32, 11, 10, 31, 8, 48, 37, 7, 24, 19, 39, 30, 44, 45, 16, 9, 26, 21, 23, 22, 1, 47), 1160)
21: ((33, 42, 27, 6, 20, 15, 5, 28, 0, 29, 4, 13, 40, 12, 35, 2, 17, 38, 36, 49, 3, 34, 25, 14, 43, 18, 46, 41, 32, 11, 10, 31, 8, 48, 37, 7, 24, 19, 39, 30, 44, 45, 16, 9, 26, 21, 23, 22, 1, 47), 1160)
22: ((33, 42, 27, 6, 20, 15, 5, 28, 0, 29, 4, 13, 40, 12, 35, 2, 17, 38, 36, 49, 3, 34, 25, 14, 43, 18, 46, 41, 32, 11, 10, 31, 8, 48, 37, 7, 24, 19, 39, 30, 44, 45, 16, 9, 26, 21, 23, 22, 1, 47), 1160)
23: ((33, 42, 27, 6, 20, 15, 5, 28, 0, 29, 4, 13, 40, 12, 35, 2, 17, 38, 36, 49, 3, 34, 25, 14, 43, 18, 46, 41, 32, 11, 10, 31, 8, 48, 37, 7, 24, 19, 39, 30, 44, 45, 16, 9, 26, 21, 23, 22, 1, 47), 1160)
24: ((33, 42, 27, 6, 20, 15, 5, 28, 0, 29, 4, 13, 40, 12, 35, 2, 17, 38, 36, 49, 3, 34, 25, 14, 43, 18, 46, 41, 32, 11, 10, 31, 8, 48, 37, 7, 24, 19, 39, 30, 44, 45, 16, 9, 26, 21, 23, 22, 1, 47), 1160)
25: ((33, 42, 27, 6, 20, 15, 5, 28, 0, 29, 4, 13, 40, 12, 35, 2, 17, 38, 36, 49, 3, 34, 25, 14, 43, 18, 46, 41, 32, 11, 10, 31, 8, 48, 37, 7, 24, 19, 39, 30, 44, 45, 16, 9, 26, 21, 23, 22, 1, 47), 1160)
26: ((33, 42, 27, 6, 20, 15, 5, 28, 0, 29, 4, 13, 40, 12, 35, 2, 17, 38, 36, 49, 3, 34, 25, 14, 43, 18, 46, 41, 32, 11, 10, 31, 8, 48, 37, 7, 24, 19, 39, 30, 44, 45, 16, 9, 26, 21, 23, 22, 1, 47), 1160)
27: ((33, 42, 27, 6, 20, 15, 5, 28, 0, 29, 4, 13, 40, 12, 35, 2, 17, 38, 36, 49, 3, 34, 25, 14, 43, 18, 46, 41, 32, 11, 10, 31, 8, 48, 37, 7, 24, 19, 39, 30, 44, 45, 16, 9, 26, 21, 23, 22, 1, 47), 1160)
28: ((33, 42, 27, 6, 20, 15, 5, 28, 0, 29, 4, 13, 40, 12, 35, 2, 17, 38, 36, 49, 3, 34, 25, 14, 43, 18, 46, 41, 32, 11, 10, 31, 8, 48, 37, 7, 24, 19, 39, 30, 44, 45, 16, 9, 26, 21, 23, 22, 1, 47), 1160)
29: ((33, 42, 27, 6, 20, 15, 5, 28, 0, 29, 4, 13, 40, 12, 35, 2, 17, 38, 36, 49, 3, 34, 25, 14, 43, 18, 46, 41, 32, 11, 10, 31, 8, 48, 37, 7, 24, 19, 39, 30, 44, 45, 16, 9, 26, 21, 23, 22, 1, 47), 1160)
30: ((33, 42, 27, 6, 20, 15, 5, 28, 0, 29, 4, 13, 40, 12, 35, 2, 17, 38, 36, 49, 3, 34, 25, 14, 43, 18, 46, 41, 32, 11, 10, 31, 8, 48, 37, 7, 24, 19, 39, 30, 44, 45, 16, 9, 26, 21, 23, 22, 1, 47), 1160)
31: ((33, 42, 27, 6, 20, 15, 5, 28, 0, 29, 4, 13, 40, 12, 35, 2, 17, 38, 36, 49, 3, 34, 25, 14, 43, 18, 46, 41, 32, 11, 10, 31, 8, 48, 37, 7, 24, 19, 39, 30, 44, 45, 16, 9, 26, 21, 23, 22, 1, 47), 1160)
32: ((33, 42, 27, 6, 20, 15, 5, 28, 0, 29, 4, 13, 40, 12, 35, 2, 17, 38, 36, 49, 3, 34, 25, 14, 43, 18, 46, 41, 32, 11, 10, 31, 8, 48, 37, 7, 24, 19, 39, 30, 44, 45, 16, 9, 26, 21, 23, 22, 1, 47), 1160)
33: ((33, 42, 27, 6, 20, 15, 5, 28, 0, 29, 4, 13, 40, 12, 35, 2, 17, 38, 36, 49, 3, 34, 25, 14, 43, 18, 46, 41, 32, 11, 10, 31, 8, 48, 37, 7, 24, 19, 39, 30, 44, 45, 16, 9, 26, 21, 23, 22, 1, 47), 1160)
34: ((33, 42, 27, 6, 20, 15, 5, 28, 0, 29, 4, 13, 40, 12, 35, 2, 17, 38, 36, 49, 3, 34, 25, 14, 43, 18, 46, 41, 32, 11, 10, 31, 8, 48, 37, 7, 24, 19, 39, 30, 44, 45, 16, 9, 26, 21, 23, 22, 1, 47), 1160)
35: ((33, 42, 27, 6, 20, 15, 5, 28, 0, 29, 4, 13, 40, 12, 35, 2, 17, 38, 36, 49, 3, 34, 25, 14, 43, 18, 46, 41, 32, 11, 10, 31, 8, 48, 37, 7, 24, 19, 39, 30, 44, 45, 16, 9, 26, 21, 23, 22, 1, 47), 1160)
36: ((33, 42, 27, 6, 20, 15, 5, 28, 0, 29, 4, 13, 40, 12, 35, 2, 17, 38, 36, 49, 3, 34, 25, 14, 43, 18, 46, 41, 32, 11, 10, 31, 8, 48, 37, 7, 24, 19, 39, 30, 44, 45, 16, 9, 26, 21, 23, 22, 1, 47), 1160)
37: ((38, 33, 30, 47, 32, 28, 0, 29, 49, 4, 13, 40, 12, 35, 3, 2, 17, 46, 6, 26, 42, 36, 45, 5, 9, 23, 21, 16, 8, 31, 44, 24, 20, 15, 14, 34, 25, 41, 1, 43, 37, 11, 48, 7, 27, 19, 10, 39, 22, 18), 1158)
38: ((22, 18, 38, 30, 23, 36, 4, 13, 28, 3, 40, 2, 32, 46, 49, 6, 26, 42, 35, 7, 17, 8, 0, 5, 21, 31, 24, 20, 15, 33, 41, 29, 14, 34, 25, 43, 37, 27, 47, 44, 45, 16, 9, 11, 48, 1, 19, 12, 10, 39), 1155)
39: ((22, 18, 38, 30, 23, 36, 4, 13, 28, 3, 40, 2, 32, 46, 49, 6, 26, 42, 35, 7, 17, 8, 0, 5, 21, 31, 24, 20, 15, 33, 41, 29, 14, 34, 25, 43, 37, 27, 47, 44, 45, 16, 9, 11, 48, 1, 19, 12, 10, 39), 1155)
40: ((22, 18, 38, 30, 23, 36, 4, 13, 28, 3, 40, 2, 32, 46, 49, 6, 26, 42, 35, 7, 17, 8, 0, 5, 21, 31, 24, 20, 15, 33, 41, 29, 14, 34, 25, 43, 37, 27, 47, 44, 45, 16, 9, 11, 48, 1, 19, 12, 10, 39), 1155)
41: ((22, 18, 38, 30, 23, 36, 4, 13, 28, 3, 40, 2, 32, 46, 49, 6, 26, 42, 35, 7, 17, 8, 0, 5, 21, 31, 24, 20, 15, 33, 41, 29, 14, 34, 25, 43, 37, 27, 47, 44, 45, 16, 9, 11, 48, 1, 19, 12, 10, 39), 1155)
42: ((22, 18, 38, 30, 23, 36, 4, 13, 28, 3, 40, 2, 32, 46, 49, 6, 26, 42, 35, 7, 17, 8, 0, 5, 21, 31, 24, 20, 15, 33, 41, 29, 14, 34, 25, 43, 37, 27, 47, 44, 45, 16, 9, 11, 48, 1, 19, 12, 10, 39), 1155)
43: ((22, 18, 38, 30, 23, 36, 4, 13, 28, 3, 40, 2, 32, 46, 49, 6, 26, 42, 35, 7, 17, 8, 0, 5, 21, 31, 24, 20, 15, 33, 41, 29, 14, 34, 25, 43, 37, 27, 47, 44, 45, 16, 9, 11, 48, 1, 19, 12, 10, 39), 1155)
44: ((22, 18, 38, 30, 23, 36, 4, 13, 28, 3, 40, 2, 32, 46, 49, 6, 26, 42, 35, 7, 17, 8, 0, 5, 21, 31, 24, 20, 15, 33, 41, 29, 14, 34, 25, 43, 37, 27, 47, 44, 45, 16, 9, 11, 48, 1, 19, 12, 10, 39), 1155)
45: ((22, 18, 38, 30, 23, 36, 4, 13, 28, 3, 40, 2, 32, 46, 49, 6, 26, 42, 35, 7, 17, 8, 0, 5, 21, 31, 24, 20, 15, 33, 41, 29, 14, 34, 25, 43, 37, 27, 47, 44, 45, 16, 9, 11, 48, 1, 19, 12, 10, 39), 1155)
46: ((22, 18, 38, 30, 23, 36, 4, 13, 28, 3, 40, 2, 32, 46, 49, 6, 26, 42, 35, 7, 17, 8, 0, 5, 21, 31, 24, 20, 15, 33, 41, 29, 14, 34, 25, 43, 37, 27, 47, 44, 45, 16, 9, 11, 48, 1, 19, 12, 10, 39), 1155)
47: ((38, 30, 28, 47, 32, 0, 33, 29, 49, 4, 13, 40, 12, 35, 3, 2, 17, 46, 6, 26, 42, 36, 45, 5, 9, 23, 21, 16, 8, 31, 44, 24, 20, 15, 14, 34, 25, 41, 1, 43, 37, 11, 48, 7, 27, 19, 10, 39, 22, 18), 1142)
48: ((38, 30, 28, 47, 32, 0, 33, 29, 49, 4, 13, 40, 12, 35, 3, 2, 17, 46, 6, 26, 42, 36, 45, 5, 9, 23, 21, 16, 8, 31, 44, 24, 20, 15, 14, 34, 25, 41, 1, 43, 37, 11, 48, 7, 27, 19, 10, 39, 22, 18), 1142)
49: ((38, 30, 28, 47, 32, 0, 33, 29, 49, 4, 13, 40, 12, 35, 3, 2, 17, 46, 6, 26, 42, 36, 45, 5, 9, 23, 21, 16, 8, 31, 44, 24, 20, 15, 14, 34, 25, 41, 1, 43, 37, 11, 48, 7, 27, 19, 10, 39, 22, 18), 1142)
50: ((38, 30, 28, 47, 32, 0, 33, 29, 49, 4, 13, 40, 12, 35, 3, 2, 17, 46, 6, 26, 42, 36, 45, 5, 9, 23, 21, 16, 8, 31, 44, 24, 20, 15, 14, 34, 25, 41, 1, 43, 37, 11, 48, 7, 27, 19, 10, 39, 22, 18), 1142)
51: ((38, 30, 28, 47, 32, 0, 33, 29, 49, 4, 13, 40, 12, 35, 3, 2, 17, 46, 6, 26, 42, 36, 45, 5, 9, 23, 21, 16, 8, 31, 44, 24, 20, 15, 14, 34, 25, 41, 1, 43, 37, 11, 48, 7, 27, 19, 10, 39, 22, 18), 1142)
52: ((38, 30, 28, 47, 32, 0, 33, 29, 49, 4, 13, 40, 12, 35, 3, 2, 17, 46, 6, 26, 42, 36, 45, 5, 9, 23, 21, 16, 8, 31, 44, 24, 20, 15, 14, 34, 25, 41, 1, 43, 37, 11, 48, 7, 27, 19, 10, 39, 22, 18), 1142)
53: ((38, 30, 28, 47, 32, 0, 33, 29, 49, 4, 13, 40, 12, 35, 3, 2, 17, 46, 6, 26, 42, 36, 45, 5, 9, 23, 21, 16, 8, 31, 44, 24, 20, 15, 14, 34, 25, 41, 1, 43, 37, 11, 48, 7, 27, 19, 10, 39, 22, 18), 1142)
54: ((38, 30, 28, 47, 32, 0, 33, 29, 49, 4, 13, 40, 12, 35, 3, 2, 17, 46, 6, 26, 42, 36, 45, 5, 9, 23, 21, 16, 8, 31, 44, 24, 20, 15, 14, 34, 25, 41, 1, 43, 37, 11, 48, 7, 27, 19, 10, 39, 22, 18), 1142)
55: ((38, 30, 28, 47, 32, 0, 33, 29, 49, 4, 13, 40, 12, 35, 3, 2, 17, 46, 6, 26, 42, 36, 45, 5, 9, 23, 21, 16, 8, 31, 44, 24, 20, 15, 14, 34, 25, 41, 1, 43, 37, 11, 48, 7, 27, 19, 10, 39, 22, 18), 1142)
56: ((38, 30, 28, 47, 32, 0, 33, 29, 49, 4, 13, 40, 12, 35, 3, 2, 17, 46, 6, 26, 42, 36, 45, 5, 9, 23, 21, 16, 8, 31, 44, 24, 20, 15, 14, 34, 25, 41, 1, 43, 37, 11, 48, 7, 27, 19, 10, 39, 22, 18), 1142)
57: ((38, 30, 28, 47, 32, 0, 33, 29, 49, 4, 13, 40, 12, 35, 3, 2, 17, 46, 6, 26, 42, 36, 45, 5, 9, 23, 21, 16, 8, 31, 44, 24, 20, 15, 14, 34, 25, 41, 1, 43, 37, 11, 48, 7, 27, 19, 10, 39, 22, 18), 1142)
58: ((38, 30, 28, 47, 32, 0, 33, 29, 49, 4, 13, 40, 12, 35, 3, 2, 17, 46, 6, 26, 42, 36, 45, 5, 9, 23, 21, 16, 8, 31, 44, 24, 20, 15, 14, 34, 25, 41, 1, 43, 37, 11, 48, 7, 27, 19, 10, 39, 22, 18), 1142)
59: ((38, 30, 28, 47, 32, 0, 33, 29, 49, 4, 13, 40, 12, 35, 3, 2, 17, 46, 6, 26, 42, 36, 45, 5, 9, 23, 21, 16, 8, 31, 44, 24, 20, 15, 14, 34, 25, 41, 1, 43, 37, 11, 48, 7, 27, 19, 10, 39, 22, 18), 1142)
60: ((38, 30, 28, 47, 32, 0, 33, 29, 49, 4, 13, 40, 12, 35, 3, 2, 17, 46, 6, 26, 42, 36, 45, 5, 9, 23, 21, 16, 8, 31, 44, 24, 20, 15, 14, 34, 25, 41, 1, 43, 37, 11, 48, 7, 27, 19, 10, 39, 22, 18), 1142)
61: ((38, 30, 28, 47, 32, 0, 33, 29, 49, 4, 13, 40, 12, 35, 3, 2, 17, 46, 6, 26, 42, 36, 45, 5, 9, 23, 21, 16, 8, 31, 44, 24, 20, 15, 14, 34, 25, 41, 1, 43, 37, 11, 48, 7, 27, 19, 10, 39, 22, 18), 1142)
62: ((38, 30, 28, 47, 32, 0, 33, 29, 49, 4, 13, 40, 12, 35, 3, 2, 17, 46, 6, 26, 42, 36, 45, 5, 9, 23, 21, 16, 8, 31, 44, 24, 20, 15, 14, 34, 25, 41, 1, 43, 37, 11, 48, 7, 27, 19, 10, 39, 22, 18), 1142)
63: ((38, 30, 28, 47, 32, 0, 33, 29, 49, 4, 13, 40, 12, 35, 3, 2, 17, 46, 6, 26, 42, 36, 45, 5, 9, 23, 21, 16, 8, 31, 44, 24, 20, 15, 14, 34, 25, 41, 1, 43, 37, 11, 48, 7, 27, 19, 10, 39, 22, 18), 1142)
64: ((38, 30, 28, 47, 32, 0, 33, 29, 49, 4, 13, 40, 12, 35, 3, 2, 17, 46, 6, 26, 42, 36, 45, 5, 9, 23, 21, 16, 8, 31, 44, 24, 20, 15, 14, 34, 25, 41, 1, 43, 37, 11, 48, 7, 27, 19, 10, 39, 22, 18), 1142)
65: ((38, 28, 30, 47, 32, 33, 0, 29, 49, 4, 13, 40, 12, 35, 3, 2, 17, 46, 6, 26, 42, 36, 45, 5, 9, 23, 21, 16, 8, 31, 44, 24, 20, 15, 14, 34, 41, 7, 25, 43, 37, 11, 48, 1, 27, 19, 10, 39, 22, 18), 1138)
66: ((38, 28, 30, 47, 32, 33, 0, 29, 49, 4, 13, 40, 12, 35, 3, 2, 17, 46, 6, 26, 42, 36, 45, 5, 9, 23, 21, 16, 8, 31, 44, 24, 20, 15, 14, 34, 41, 7, 25, 43, 37, 11, 48, 1, 27, 19, 10, 39, 22, 18), 1138)
67: ((38, 28, 30, 47, 32, 33, 0, 29, 49, 4, 13, 40, 12, 35, 3, 2, 17, 46, 6, 26, 42, 36, 45, 5, 9, 23, 21, 16, 8, 31, 44, 24, 20, 15, 14, 34, 41, 7, 25, 43, 37, 11, 48, 1, 27, 19, 10, 39, 22, 18), 1138)
68: ((38, 28, 30, 47, 32, 33, 0, 29, 49, 4, 13, 40, 12, 35, 3, 2, 17, 46, 6, 26, 42, 36, 45, 5, 9, 23, 21, 16, 8, 31, 44, 24, 20, 15, 14, 34, 41, 7, 25, 43, 37, 11, 48, 1, 27, 19, 10, 39, 22, 18), 1138)
69: ((38, 28, 30, 47, 32, 33, 0, 29, 49, 4, 13, 40, 12, 35, 3, 2, 17, 46, 6, 26, 42, 36, 45, 5, 9, 23, 21, 16, 8, 31, 44, 24, 20, 15, 14, 34, 41, 7, 25, 43, 37, 11, 48, 1, 27, 19, 10, 39, 22, 18), 1138)
70: ((38, 28, 30, 47, 32, 33, 0, 29, 49, 4, 13, 40, 12, 35, 3, 2, 17, 46, 6, 26, 42, 36, 45, 5, 9, 23, 21, 16, 8, 31, 44, 24, 20, 15, 14, 34, 41, 7, 25, 43, 37, 11, 48, 1, 27, 19, 10, 39, 22, 18), 1138)
71: ((38, 28, 30, 47, 32, 33, 29, 49, 4, 13, 40, 12, 35, 3, 2, 17, 46, 6, 26, 42, 36, 45, 23, 8, 31, 44, 24, 15, 14, 34, 41, 7, 25, 43, 37, 11, 48, 1, 20, 5, 0, 16, 21, 9, 27, 19, 10, 39, 22, 18), 1133)
72: ((38, 28, 30, 47, 32, 33, 0, 29, 49, 4, 13, 40, 12, 35, 3, 2, 17, 46, 6, 42, 36, 45, 26, 16, 8, 31, 44, 24, 20, 15, 14, 34, 41, 7, 25, 43, 37, 11, 48, 1, 27, 19, 10, 9, 5, 21, 23, 39, 22, 18), 1123)
73: ((38, 28, 30, 47, 32, 33, 0, 29, 49, 4, 13, 40, 12, 35, 3, 2, 17, 46, 6, 42, 36, 45, 26, 16, 8, 31, 44, 24, 20, 15, 14, 34, 41, 7, 25, 43, 37, 11, 48, 1, 27, 19, 10, 9, 5, 21, 23, 39, 22, 18), 1123)
74: ((38, 28, 30, 47, 32, 33, 0, 29, 49, 4, 13, 40, 12, 35, 3, 2, 17, 46, 6, 42, 36, 45, 26, 16, 8, 31, 44, 24, 20, 15, 14, 34, 41, 7, 25, 43, 37, 11, 48, 1, 27, 19, 10, 9, 5, 21, 23, 39, 22, 18), 1123)
75: ((38, 28, 30, 47, 32, 33, 0, 29, 49, 4, 13, 40, 12, 35, 3, 2, 17, 46, 6, 42, 36, 45, 26, 16, 8, 31, 44, 24, 20, 15, 14, 34, 41, 7, 25, 43, 37, 11, 48, 1, 27, 19, 10, 9, 5, 21, 23, 39, 22, 18), 1123)
76: ((38, 28, 30, 47, 32, 33, 0, 29, 49, 4, 13, 40, 12, 35, 3, 2, 17, 46, 6, 42, 36, 45, 26, 16, 8, 31, 44, 24, 20, 15, 14, 34, 41, 7, 25, 43, 37, 11, 48, 1, 27, 19, 10, 9, 5, 21, 23, 39, 22, 18), 1123)
77: ((38, 28, 30, 47, 32, 33, 0, 29, 49, 4, 13, 40, 12, 35, 3, 2, 17, 46, 6, 42, 36, 45, 26, 16, 8, 31, 44, 24, 20, 15, 14, 34, 41, 7, 25, 43, 37, 11, 48, 1, 27, 19, 10, 9, 5, 21, 23, 39, 22, 18), 1123)
78: ((38, 28, 30, 47, 32, 33, 0, 29, 49, 4, 13, 40, 12, 35, 3, 2, 17, 46, 6, 42, 36, 45, 26, 16, 8, 31, 44, 24, 20, 15, 14, 34, 41, 7, 25, 43, 37, 11, 48, 1, 27, 19, 10, 9, 5, 21, 23, 39, 22, 18), 1123)
79: ((38, 28, 30, 47, 32, 33, 0, 29, 49, 4, 13, 40, 12, 35, 3, 2, 17, 46, 6, 42, 36, 45, 26, 16, 8, 31, 44, 24, 20, 15, 14, 34, 41, 7, 25, 43, 37, 11, 48, 1, 27, 19, 10, 9, 5, 21, 23, 39, 22, 18), 1123)
80: ((38, 28, 30, 47, 32, 33, 0, 29, 49, 4, 13, 40, 12, 35, 3, 2, 17, 46, 6, 42, 36, 45, 26, 16, 8, 31, 44, 24, 20, 15, 14, 34, 41, 7, 25, 43, 37, 11, 48, 1, 27, 19, 10, 9, 5, 21, 23, 39, 22, 18), 1123)
81: ((38, 28, 30, 47, 32, 33, 0, 29, 49, 4, 13, 40, 12, 35, 3, 2, 17, 46, 6, 42, 36, 45, 26, 16, 8, 31, 44, 24, 20, 15, 14, 34, 41, 7, 25, 43, 37, 11, 48, 1, 27, 19, 10, 9, 5, 21, 23, 39, 22, 18), 1123)
82: ((38, 28, 30, 47, 32, 33, 0, 29, 49, 4, 13, 40, 12, 35, 3, 2, 17, 46, 6, 42, 36, 45, 26, 16, 8, 31, 44, 24, 20, 15, 14, 34, 41, 7, 25, 43, 37, 11, 48, 1, 27, 19, 10, 9, 5, 21, 23, 39, 22, 18), 1123)
83: ((38, 28, 30, 47, 32, 33, 0, 29, 49, 4, 13, 40, 12, 35, 3, 2, 17, 46, 6, 42, 36, 45, 26, 16, 8, 31, 44, 24, 20, 15, 14, 34, 41, 7, 25, 43, 37, 11, 48, 1, 27, 19, 10, 9, 5, 21, 23, 39, 22, 18), 1123)
84: ((38, 28, 30, 47, 32, 33, 0, 29, 49, 4, 13, 40, 12, 35, 3, 2, 17, 46, 6, 42, 36, 45, 26, 16, 8, 31, 44, 24, 20, 15, 14, 34, 41, 7, 25, 43, 37, 11, 48, 1, 27, 19, 10, 9, 5, 21, 23, 39, 22, 18), 1123)
85: ((38, 28, 30, 47, 32, 33, 0, 29, 49, 4, 13, 40, 12, 35, 3, 2, 17, 46, 6, 42, 36, 45, 26, 16, 8, 31, 44, 24, 20, 15, 14, 34, 41, 7, 25, 43, 37, 11, 48, 1, 27, 19, 10, 9, 5, 21, 23, 39, 22, 18), 1123)
86: ((38, 28, 30, 47, 32, 33, 0, 29, 49, 4, 13, 40, 12, 35, 3, 2, 17, 46, 6, 42, 36, 45, 26, 16, 8, 31, 44, 24, 20, 15, 14, 34, 41, 7, 25, 43, 37, 11, 48, 1, 27, 19, 10, 9, 5, 21, 23, 39, 22, 18), 1123)
87: ((38, 28, 30, 47, 32, 33, 0, 29, 49, 4, 13, 40, 12, 35, 3, 2, 17, 46, 6, 42, 36, 45, 26, 16, 8, 31, 44, 24, 20, 15, 14, 34, 41, 7, 25, 43, 37, 11, 48, 1, 27, 19, 10, 9, 5, 21, 23, 39, 22, 18), 1123)
88: ((38, 28, 30, 47, 32, 33, 0, 29, 49, 4, 13, 40, 12, 35, 3, 2, 17, 46, 6, 42, 36, 45, 26, 16, 8, 31, 44, 24, 20, 15, 14, 34, 41, 7, 25, 43, 37, 11, 48, 1, 27, 19, 10, 9, 5, 21, 23, 39, 22, 18), 1123)
89: ((38, 28, 30, 47, 32, 33, 0, 29, 49, 4, 13, 40, 12, 35, 3, 2, 17, 46, 6, 42, 36, 45, 26, 16, 8, 31, 44, 24, 20, 15, 14, 34, 41, 7, 25, 43, 37, 11, 48, 1, 27, 19, 10, 9, 5, 21, 23, 39, 22, 18), 1123)
90: ((38, 28, 30, 47, 32, 33, 0, 29, 49, 4, 13, 40, 12, 35, 3, 2, 17, 46, 6, 42, 36, 45, 26, 16, 8, 31, 24, 20, 15, 14, 34, 41, 7, 25, 37, 11, 48, 1, 27, 19, 43, 44, 10, 9, 5, 21, 23, 39, 22, 18), 1129)
91: ((38, 28, 30, 47, 32, 33, 0, 29, 49, 4, 13, 40, 12, 35, 3, 2, 17, 46, 6, 42, 36, 45, 26, 16, 8, 31, 24, 20, 15, 14, 34, 41, 7, 25, 37, 11, 48, 1, 27, 19, 43, 44, 10, 9, 5, 21, 23, 39, 22, 18), 1129)
92: ((38, 28, 30, 47, 32, 33, 0, 29, 49, 4, 13, 40, 12, 35, 3, 2, 17, 46, 6, 42, 36, 45, 26, 16, 8, 31, 24, 20, 15, 14, 34, 41, 7, 25, 37, 11, 48, 1, 27, 19, 43, 44, 10, 9, 5, 21, 23, 39, 22, 18), 1129)
93: ((38, 28, 30, 47, 32, 33, 0, 29, 49, 4, 13, 40, 12, 35, 3, 2, 17, 46, 6, 42, 36, 45, 26, 16, 8, 31, 24, 20, 15, 14, 34, 41, 7, 25, 37, 11, 48, 1, 27, 19, 43, 44, 10, 9, 5, 21, 23, 39, 22, 18), 1129)
94: ((38, 28, 30, 47, 32, 33, 0, 29, 49, 4, 13, 40, 12, 35, 3, 2, 17, 46, 6, 42, 36, 45, 26, 16, 8, 31, 24, 20, 15, 14, 34, 41, 7, 25, 37, 11, 48, 1, 27, 19, 43, 44, 10, 9, 5, 21, 23, 39, 22, 18), 1129)
95: ((38, 28, 30, 13, 32, 33, 49, 4, 47, 26, 40, 35, 3, 2, 17, 46, 6, 42, 36, 45, 23, 8, 44, 24, 34, 41, 7, 1, 15, 29, 31, 48, 12, 14, 25, 20, 5, 0, 43, 37, 11, 16, 21, 9, 27, 19, 10, 39, 22, 18), 1133)
Best: ((38, 28, 30, 47, 32, 33, 0, 29, 49, 4, 13, 40, 12, 35, 3, 2, 17, 46, 6, 42, 36, 45, 26, 16, 8, 31, 44, 24, 20, 15, 14, 34, 41, 7, 25, 43, 37, 11, 48, 1, 27, 19, 10, 9, 5, 21, 23, 39, 22, 18), 1123)
Runtime: 398.49539120000003 s